
-10.7
-10.7
-10.5
-9.6
-9.2
-8.7
-6.6
-5.3
-3.7
-2.1
-1.8
-1.7
-1.6
-1.5
-1.4
-1.3
-1.3
-1.3
-1.2
-1.2
-1.2
-1.2
-1.2
-1.2
-1.2
-1.2
-1.2
-1.2
-1.2
-1.2
-1.2
-1.2
-1.2
-1.2
-1.2
-10.6
-10.5
-9.9
-9.7
-8.6
-8.4
-7.4
-5.5
-3.3
-2.1
-1.8
-1.6
-1.5
-1.2
-1.2
-1.1
-1.0
-1.0
-1.0
-1.0
-1.0
-1.0
-1.0
-1.0
-1.0
-1.0
-1.0
-1.0
-1.0
-1.0
-1.0
-1.0
-1.0
-1.0
-1.0
-1.0
-1.0
-10.6
-10.1
-9.8
-9.7
-9.3
-8.1
-6.9
-5.3
-3.5
-2.4
-1.8
-1.6
-1.6
-1.5
-1.4
-1.3
-1.3
-1.2
-1.1
-1.1
-1.1
-1.1
-1.1
-1.1
-1.1
-1.1
-1.1
-1.1
-1.1
-1.1
-1.1